(set-logic QF_ABV)

(declare-const __ESBMC_ptr_obj_start_0 (_ BitVec 64))

(declare-const __ESBMC_ptr_obj_end_0 (_ BitVec 64))

(declare-const __ESBMC_ptr_obj_start_1 (_ BitVec 64))

(declare-const __ESBMC_ptr_obj_end_1 (_ BitVec 64))

(declare-const |smt_conv::__ESBMC_ptr_addr_range_0..start0| (_ BitVec 64))

(declare-const |smt_conv::__ESBMC_ptr_addr_range_0..end0| (_ BitVec 64))

(declare-const |smt_conv::__ESBMC_ptr_addr_range_1..start0| (_ BitVec 64))

(declare-const |smt_conv::__ESBMC_ptr_addr_range_1..end0| (_ BitVec 64))

(declare-const |smt_conv::smt_conv::collate_array_vals::3..start0| (_ BitVec 64))

(declare-const |smt_conv::smt_conv::collate_array_vals::3..end0| (_ BitVec 64))

(declare-const |smt_conv::smt_conv::collate_array_vals::4..start0| (_ BitVec 64))

(declare-const |smt_conv::smt_conv::collate_array_vals::4..end0| (_ BitVec 64))

(declare-const |smt_conv::smt_conv::collate_array_vals::7..start0| (_ BitVec 64))

(declare-const |smt_conv::smt_conv::collate_array_vals::7..end0| (_ BitVec 64))

(declare-const |c:@F@main::$tmp::return_value$___VERIFIER_nondet_int$1?1!0&0#1| (_ BitVec 32))

(declare-const |nondet$symex::nondet161| (_ BitVec 32))

(declare-const |c:cstrcpy-alloca-1.i@22257@F@main@length1?1!0&0#1| (_ BitVec 32))

(declare-const |c:@F@main::$tmp::return_value$___VERIFIER_nondet_int$2?1!0&0#1| (_ BitVec 32))

(declare-const |nondet$symex::nondet162| (_ BitVec 32))

(declare-const |c:cstrcpy-alloca-1.i@22298@F@main@length2?1!0&0#1| (_ BitVec 32))

(declare-const |goto_symex::guard?0!0&0#1| (_ BitVec 1))

(declare-const |c:cstrcpy-alloca-1.i@22257@F@main@length1?1!0&0#3| (_ BitVec 32))

(declare-const |goto_symex::guard?0!0&0#2| (_ BitVec 1))

(declare-const |c:cstrcpy-alloca-1.i@22298@F@main@length2?1!0&0#3| (_ BitVec 32))

(declare-const |goto_symex::guard?0!0&0#3| (_ BitVec 1))

(declare-const |goto_symex::guard?0!0&0#4| (_ BitVec 1))

(declare-const |nondet$symex::nondet165| (_ BitVec 8))

(declare-const |goto_symex::guard?0!0&0#5| (_ BitVec 1))

(declare-const |nondet$symex::nondet166| (_ BitVec 8))

(declare-const |goto_symex::guard?0!0&0#6| (_ BitVec 1))

(declare-const |nondet$symex::nondet167| (_ BitVec 8))

(declare-const |goto_symex::guard?0!0&0#7| (_ BitVec 1))

(declare-const |nondet$symex::nondet168| (_ BitVec 8))

(declare-const |goto_symex::guard?0!0&0#8| (_ BitVec 1))

(declare-const |nondet$symex::nondet169| (_ BitVec 8))

(declare-const |goto_symex::guard?0!0&0#9| (_ BitVec 1))

(declare-const |nondet$symex::nondet170| (_ BitVec 8))

(declare-const |goto_symex::guard?0!0&0#10| (_ BitVec 1))

(declare-const |nondet$symex::nondet171| (_ BitVec 8))

(declare-const |goto_symex::guard?0!0&0#11| (_ BitVec 1))

(declare-const |nondet$symex::nondet172| (_ BitVec 8))

(declare-const |goto_symex::guard?0!0&0#12| (_ BitVec 1))

(declare-const |nondet$symex::nondet173| (_ BitVec 8))

(declare-const |goto_symex::guard?0!0&0#13| (_ BitVec 1))

(declare-const |nondet$symex::nondet174| (_ BitVec 8))

(declare-const |goto_symex::guard?0!0&0#14| (_ BitVec 1))

(declare-const |nondet$symex::nondet175| (_ BitVec 8))

(declare-const |goto_symex::guard?0!0&0#15| (_ BitVec 1))

(declare-const |nondet$symex::nondet176| (_ BitVec 8))

(declare-const |goto_symex::guard?0!0&0#16| (_ BitVec 1))

(declare-const |nondet$symex::nondet177| (_ BitVec 8))

(declare-const |goto_symex::guard?0!0&0#17| (_ BitVec 1))

(declare-const |nondet$symex::nondet178| (_ BitVec 8))

(declare-const |goto_symex::guard?0!0&0#18| (_ BitVec 1))

(declare-const |execution_statet::guard_exec?0!0| (_ BitVec 1))

(declare-const |goto_symex::guard?0!0&0#19| (_ BitVec 1))

(declare-const |goto_symex::guard?0!0&0#20| (_ BitVec 1))

(declare-const |goto_symex::guard?0!0&0#21| (_ BitVec 1))

(declare-const |goto_symex::guard?0!0&0#22| (_ BitVec 1))

(declare-const |goto_symex::guard?0!0&0#23| (_ BitVec 1))

(declare-const |goto_symex::guard?0!0&0#24| (_ BitVec 1))

(declare-const |goto_symex::guard?0!0&0#25| (_ BitVec 1))

(declare-const |goto_symex::guard?0!0&0#26| (_ BitVec 1))

(declare-const |goto_symex::guard?0!0&0#27| (_ BitVec 1))

(declare-const |goto_symex::guard?0!0&0#28| (_ BitVec 1))

(declare-const |goto_symex::guard?0!0&0#29| (_ BitVec 1))

(declare-const |goto_symex::guard?0!0&0#30| (_ BitVec 1))

(declare-const |goto_symex::guard?0!0&0#31| (_ BitVec 1))

(declare-const |goto_symex::guard?0!0&0#32| (_ BitVec 1))

(declare-const |goto_symex::guard?0!0&0#33| (_ BitVec 1))

(declare-const |symex_dynamic::alloca::dynamic_165_array&0#1| (Array (_ BitVec 64) (_ BitVec 8)))

(declare-const |symex_dynamic::alloca::dynamic_165_array&0#0| (Array (_ BitVec 64) (_ BitVec 8)))

(declare-const |symex_dynamic::alloca::dynamic_165_array&0#2| (Array (_ BitVec 64) (_ BitVec 8)))

(declare-const |symex_dynamic::alloca::dynamic_165_array&0#3| (Array (_ BitVec 64) (_ BitVec 8)))

(declare-const |symex_dynamic::alloca::dynamic_165_array&0#4| (Array (_ BitVec 64) (_ BitVec 8)))

(declare-const |symex_dynamic::alloca::dynamic_165_array&0#5| (Array (_ BitVec 64) (_ BitVec 8)))

(declare-const |symex_dynamic::alloca::dynamic_165_array&0#6| (Array (_ BitVec 64) (_ BitVec 8)))

(declare-const |symex_dynamic::alloca::dynamic_165_array&0#7| (Array (_ BitVec 64) (_ BitVec 8)))

(declare-const |symex_dynamic::alloca::dynamic_165_array&0#8| (Array (_ BitVec 64) (_ BitVec 8)))

(declare-const |symex_dynamic::alloca::dynamic_165_array&0#9| (Array (_ BitVec 64) (_ BitVec 8)))

(declare-const |symex_dynamic::alloca::dynamic_165_array&0#10| (Array (_ BitVec 64) (_ BitVec 8)))

(declare-const |symex_dynamic::alloca::dynamic_165_array&0#11| (Array (_ BitVec 64) (_ BitVec 8)))

(declare-const |symex_dynamic::alloca::dynamic_165_array&0#12| (Array (_ BitVec 64) (_ BitVec 8)))

(declare-const |symex_dynamic::alloca::dynamic_165_array&0#13| (Array (_ BitVec 64) (_ BitVec 8)))

(declare-const |symex_dynamic::alloca::dynamic_165_array&0#14| (Array (_ BitVec 64) (_ BitVec 8)))

(declare-const |symex_dynamic::alloca::dynamic_165_array&0#16| (Array (_ BitVec 64) (_ BitVec 8)))

(declare-const |symex_dynamic::alloca::dynamic_165_array&0#17| (Array (_ BitVec 64) (_ BitVec 8)))

(declare-const |symex_dynamic::alloca::dynamic_165_array&0#18| (Array (_ BitVec 64) (_ BitVec 8)))

(declare-const |symex_dynamic::alloca::dynamic_165_array&0#19| (Array (_ BitVec 64) (_ BitVec 8)))

(declare-const |symex_dynamic::alloca::dynamic_165_array&0#20| (Array (_ BitVec 64) (_ BitVec 8)))

(declare-const |symex_dynamic::alloca::dynamic_165_array&0#21| (Array (_ BitVec 64) (_ BitVec 8)))

(declare-const |symex_dynamic::alloca::dynamic_165_array&0#22| (Array (_ BitVec 64) (_ BitVec 8)))

(declare-const |symex_dynamic::alloca::dynamic_165_array&0#23| (Array (_ BitVec 64) (_ BitVec 8)))

(declare-const |symex_dynamic::alloca::dynamic_165_array&0#24| (Array (_ BitVec 64) (_ BitVec 8)))

(declare-const |symex_dynamic::alloca::dynamic_165_array&0#25| (Array (_ BitVec 64) (_ BitVec 8)))

(declare-const |symex_dynamic::alloca::dynamic_165_array&0#26| (Array (_ BitVec 64) (_ BitVec 8)))

(declare-const |symex_dynamic::alloca::dynamic_165_array&0#27| (Array (_ BitVec 64) (_ BitVec 8)))

(declare-const |symex_dynamic::alloca::dynamic_165_array&0#28| (Array (_ BitVec 64) (_ BitVec 8)))

(declare-const |symex_dynamic::alloca::dynamic_165_array&0#29| (Array (_ BitVec 64) (_ BitVec 8)))

(declare-const |symex_dynamic::alloca::dynamic_165_array&0#30| (Array (_ BitVec 64) (_ BitVec 8)))

(declare-const |symex_dynamic::alloca::dynamic_164_array&0#1| (Array (_ BitVec 64) (_ BitVec 8)))

(declare-const |symex_dynamic::alloca::dynamic_164_array&0#0| (Array (_ BitVec 64) (_ BitVec 8)))

(declare-const |symex_dynamic::alloca::dynamic_164_array&0#2| (Array (_ BitVec 64) (_ BitVec 8)))

(declare-const |symex_dynamic::alloca::dynamic_164_array&0#3| (Array (_ BitVec 64) (_ BitVec 8)))

(declare-const |symex_dynamic::alloca::dynamic_164_array&0#4| (Array (_ BitVec 64) (_ BitVec 8)))

(declare-const |symex_dynamic::alloca::dynamic_164_array&0#5| (Array (_ BitVec 64) (_ BitVec 8)))

(declare-const |symex_dynamic::alloca::dynamic_164_array&0#6| (Array (_ BitVec 64) (_ BitVec 8)))

(declare-const |symex_dynamic::alloca::dynamic_164_array&0#7| (Array (_ BitVec 64) (_ BitVec 8)))

(declare-const |symex_dynamic::alloca::dynamic_164_array&0#8| (Array (_ BitVec 64) (_ BitVec 8)))

(declare-const |symex_dynamic::alloca::dynamic_164_array&0#9| (Array (_ BitVec 64) (_ BitVec 8)))

(declare-const |symex_dynamic::alloca::dynamic_164_array&0#10| (Array (_ BitVec 64) (_ BitVec 8)))

(declare-const |symex_dynamic::alloca::dynamic_164_array&0#11| (Array (_ BitVec 64) (_ BitVec 8)))

(declare-const |symex_dynamic::alloca::dynamic_164_array&0#12| (Array (_ BitVec 64) (_ BitVec 8)))

(declare-const |symex_dynamic::alloca::dynamic_164_array&0#13| (Array (_ BitVec 64) (_ BitVec 8)))

(declare-const |symex_dynamic::alloca::dynamic_164_array&0#14| (Array (_ BitVec 64) (_ BitVec 8)))

(declare-const |symex_dynamic::alloca::dynamic_164_array&0#15| (Array (_ BitVec 64) (_ BitVec 8)))

(define-fun $e1 () (_ BitVec 32) 

 (bvadd #b11111111111111111111111111111111 |c:cstrcpy-alloca-1.i@22298@F@main@length2?1!0&0#3|))

(define-fun $e2 () (_ BitVec 64) 

 (bvmul #b0000000000000000000000000000000000000000000000000000000000001000 

  (concat 

   (ite 

    (= #b1 

     ((_ extract 31 31) $e1)) #b11111111111111111111111111111111 #b00000000000000000000000000000000) $e1)))

(define-fun $e3 () (_ BitVec 8) 

 (select |symex_dynamic::alloca::dynamic_164_array&0#1| #b0000000000000000000000000000000000000000000000000000000000000000))

(define-fun $e4 () (_ BitVec 8) 

 (select |symex_dynamic::alloca::dynamic_164_array&0#2| #b0000000000000000000000000000000000000000000000000000000000000001))

(define-fun $e5 () (_ BitVec 8) 

 (select |symex_dynamic::alloca::dynamic_164_array&0#3| #b0000000000000000000000000000000000000000000000000000000000000010))

(define-fun $e6 () (_ BitVec 8) 

 (select |symex_dynamic::alloca::dynamic_164_array&0#4| #b0000000000000000000000000000000000000000000000000000000000000011))

(define-fun $e7 () (_ BitVec 8) 

 (select |symex_dynamic::alloca::dynamic_164_array&0#5| #b0000000000000000000000000000000000000000000000000000000000000100))

(define-fun $e8 () (_ BitVec 8) 

 (select |symex_dynamic::alloca::dynamic_164_array&0#6| #b0000000000000000000000000000000000000000000000000000000000000101))

(define-fun $e9 () (_ BitVec 8) 

 (select |symex_dynamic::alloca::dynamic_164_array&0#7| #b0000000000000000000000000000000000000000000000000000000000000110))

(define-fun $e10 () (_ BitVec 8) 

 (select |symex_dynamic::alloca::dynamic_164_array&0#8| #b0000000000000000000000000000000000000000000000000000000000000111))

(define-fun $e11 () (_ BitVec 8) 

 (select |symex_dynamic::alloca::dynamic_164_array&0#9| #b0000000000000000000000000000000000000000000000000000000000001000))

(define-fun $e12 () (_ BitVec 8) 

 (select |symex_dynamic::alloca::dynamic_164_array&0#10| #b0000000000000000000000000000000000000000000000000000000000001001))

(define-fun $e13 () (_ BitVec 8) 

 (select |symex_dynamic::alloca::dynamic_164_array&0#11| #b0000000000000000000000000000000000000000000000000000000000001010))

(define-fun $e14 () (_ BitVec 8) 

 (select |symex_dynamic::alloca::dynamic_164_array&0#12| #b0000000000000000000000000000000000000000000000000000000000001011))

(define-fun $e15 () (_ BitVec 8) 

 (select |symex_dynamic::alloca::dynamic_164_array&0#13| #b0000000000000000000000000000000000000000000000000000000000001100))

(define-fun $e16 () (_ BitVec 8) 

 (select |symex_dynamic::alloca::dynamic_164_array&0#14| #b0000000000000000000000000000000000000000000000000000000000001101))

(define-fun $e17 () (_ BitVec 8) 

 (select |symex_dynamic::alloca::dynamic_164_array&0#15| #b0000000000000000000000000000000000000000000000000000000000001110))

(assert 

 (= __ESBMC_ptr_obj_start_0 #b0000000000000000000000000000000000000000000000000000000000000000))

(assert 

 (= #b0000000000000000000000000000000000000000000000000000000000000000 __ESBMC_ptr_obj_end_0))

(assert 

 (= __ESBMC_ptr_obj_start_1 #b0000000000000000000000000000000000000000000000000000000000000001))

(assert 

 (= #b1111111111111111111111111111111111111111111111111111111111111111 __ESBMC_ptr_obj_end_1))

(assert 

 (= __ESBMC_ptr_obj_end_0 |smt_conv::__ESBMC_ptr_addr_range_0..end0|))

(assert 

 (= __ESBMC_ptr_obj_start_0 |smt_conv::__ESBMC_ptr_addr_range_0..start0|))

(assert 

 (= __ESBMC_ptr_obj_end_1 |smt_conv::__ESBMC_ptr_addr_range_1..end0|))

(assert 

 (= __ESBMC_ptr_obj_start_1 |smt_conv::__ESBMC_ptr_addr_range_1..start0|))

(assert 

 (= |smt_conv::smt_conv::collate_array_vals::3..end0| |smt_conv::smt_conv::collate_array_vals::4..end0|))

(assert 

 (= |smt_conv::smt_conv::collate_array_vals::3..start0| |smt_conv::smt_conv::collate_array_vals::4..start0|))

(assert 

 (= __ESBMC_ptr_obj_end_0 |smt_conv::smt_conv::collate_array_vals::7..end0|))

(assert 

 (= __ESBMC_ptr_obj_start_0 |smt_conv::smt_conv::collate_array_vals::7..start0|))

(assert 

 (= |c:@F@main::$tmp::return_value$___VERIFIER_nondet_int$1?1!0&0#1| |nondet$symex::nondet161|))

(assert 

 (= |c:@F@main::$tmp::return_value$___VERIFIER_nondet_int$1?1!0&0#1| |c:cstrcpy-alloca-1.i@22257@F@main@length1?1!0&0#1|))

(assert 

 (= |c:@F@main::$tmp::return_value$___VERIFIER_nondet_int$2?1!0&0#1| |nondet$symex::nondet162|))

(assert 

 (= |c:@F@main::$tmp::return_value$___VERIFIER_nondet_int$2?1!0&0#1| |c:cstrcpy-alloca-1.i@22298@F@main@length2?1!0&0#1|))

(assert 

 (= |goto_symex::guard?0!0&0#1| 

  (ite 

   (bvslt |c:cstrcpy-alloca-1.i@22257@F@main@length1?1!0&0#1| #b00000000000000000000000000000001) #b1 #b0)))

(assert 

 (= |c:cstrcpy-alloca-1.i@22257@F@main@length1?1!0&0#3| 

  (ite 

   (= #b1 |goto_symex::guard?0!0&0#1|) #b00000000000000000000000000000001 |c:cstrcpy-alloca-1.i@22257@F@main@length1?1!0&0#1|)))

(assert 

 (= |goto_symex::guard?0!0&0#2| 

  (ite 

   (bvslt |c:cstrcpy-alloca-1.i@22298@F@main@length2?1!0&0#1| #b00000000000000000000000000000001) #b1 #b0)))

(assert 

 (= |c:cstrcpy-alloca-1.i@22298@F@main@length2?1!0&0#3| 

  (ite 

   (= #b1 |goto_symex::guard?0!0&0#2|) #b00000000000000000000000000000001 |c:cstrcpy-alloca-1.i@22298@F@main@length2?1!0&0#1|)))

(assert 

 (= |goto_symex::guard?0!0&0#3| 

  (ite 

   (bvslt |c:cstrcpy-alloca-1.i@22257@F@main@length1?1!0&0#3| |c:cstrcpy-alloca-1.i@22298@F@main@length2?1!0&0#3|) #b1 #b0)))

(assert 

 (= |goto_symex::guard?0!0&0#4| 

  (ite 

   (bvslt #b00000000000000000000000000000000 $e1) #b1 #b0)))

(assert 

 (= |symex_dynamic::alloca::dynamic_165_array&0#1| 

  (store |symex_dynamic::alloca::dynamic_165_array&0#0| #b0000000000000000000000000000000000000000000000000000000000000000 |nondet$symex::nondet165|)))

(assert 

 (= |goto_symex::guard?0!0&0#5| 

  (ite 

   (bvslt #b00000000000000000000000000000001 $e1) #b1 #b0)))

(assert 

 (= |symex_dynamic::alloca::dynamic_165_array&0#2| 

  (store |symex_dynamic::alloca::dynamic_165_array&0#1| #b0000000000000000000000000000000000000000000000000000000000000001 |nondet$symex::nondet166|)))

(assert 

 (= |goto_symex::guard?0!0&0#6| 

  (ite 

   (bvslt #b00000000000000000000000000000010 $e1) #b1 #b0)))

(assert 

 (= |symex_dynamic::alloca::dynamic_165_array&0#3| 

  (store |symex_dynamic::alloca::dynamic_165_array&0#2| #b0000000000000000000000000000000000000000000000000000000000000010 |nondet$symex::nondet167|)))

(assert 

 (= |goto_symex::guard?0!0&0#7| 

  (ite 

   (bvslt #b00000000000000000000000000000011 $e1) #b1 #b0)))

(assert 

 (= |symex_dynamic::alloca::dynamic_165_array&0#4| 

  (store |symex_dynamic::alloca::dynamic_165_array&0#3| #b0000000000000000000000000000000000000000000000000000000000000011 |nondet$symex::nondet168|)))

(assert 

 (= |goto_symex::guard?0!0&0#8| 

  (ite 

   (bvslt #b00000000000000000000000000000100 $e1) #b1 #b0)))

(assert 

 (= |symex_dynamic::alloca::dynamic_165_array&0#5| 

  (store |symex_dynamic::alloca::dynamic_165_array&0#4| #b0000000000000000000000000000000000000000000000000000000000000100 |nondet$symex::nondet169|)))

(assert 

 (= |goto_symex::guard?0!0&0#9| 

  (ite 

   (bvslt #b00000000000000000000000000000101 $e1) #b1 #b0)))

(assert 

 (= |symex_dynamic::alloca::dynamic_165_array&0#6| 

  (store |symex_dynamic::alloca::dynamic_165_array&0#5| #b0000000000000000000000000000000000000000000000000000000000000101 |nondet$symex::nondet170|)))

(assert 

 (= |goto_symex::guard?0!0&0#10| 

  (ite 

   (bvslt #b00000000000000000000000000000110 $e1) #b1 #b0)))

(assert 

 (= |symex_dynamic::alloca::dynamic_165_array&0#7| 

  (store |symex_dynamic::alloca::dynamic_165_array&0#6| #b0000000000000000000000000000000000000000000000000000000000000110 |nondet$symex::nondet171|)))

(assert 

 (= |goto_symex::guard?0!0&0#11| 

  (ite 

   (bvslt #b00000000000000000000000000000111 $e1) #b1 #b0)))

(assert 

 (= |symex_dynamic::alloca::dynamic_165_array&0#8| 

  (store |symex_dynamic::alloca::dynamic_165_array&0#7| #b0000000000000000000000000000000000000000000000000000000000000111 |nondet$symex::nondet172|)))

(assert 

 (= |goto_symex::guard?0!0&0#12| 

  (ite 

   (bvslt #b00000000000000000000000000001000 $e1) #b1 #b0)))

(assert 

 (= |symex_dynamic::alloca::dynamic_165_array&0#9| 

  (store |symex_dynamic::alloca::dynamic_165_array&0#8| #b0000000000000000000000000000000000000000000000000000000000001000 |nondet$symex::nondet173|)))

(assert 

 (= |goto_symex::guard?0!0&0#13| 

  (ite 

   (bvslt #b00000000000000000000000000001001 $e1) #b1 #b0)))

(assert 

 (= |symex_dynamic::alloca::dynamic_165_array&0#10| 

  (store |symex_dynamic::alloca::dynamic_165_array&0#9| #b0000000000000000000000000000000000000000000000000000000000001001 |nondet$symex::nondet174|)))

(assert 

 (= |goto_symex::guard?0!0&0#14| 

  (ite 

   (bvslt #b00000000000000000000000000001010 $e1) #b1 #b0)))

(assert 

 (= |symex_dynamic::alloca::dynamic_165_array&0#11| 

  (store |symex_dynamic::alloca::dynamic_165_array&0#10| #b0000000000000000000000000000000000000000000000000000000000001010 |nondet$symex::nondet175|)))

(assert 

 (= |goto_symex::guard?0!0&0#15| 

  (ite 

   (bvslt #b00000000000000000000000000001011 $e1) #b1 #b0)))

(assert 

 (= |symex_dynamic::alloca::dynamic_165_array&0#12| 

  (store |symex_dynamic::alloca::dynamic_165_array&0#11| #b0000000000000000000000000000000000000000000000000000000000001011 |nondet$symex::nondet176|)))

(assert 

 (= |goto_symex::guard?0!0&0#16| 

  (ite 

   (bvslt #b00000000000000000000000000001100 $e1) #b1 #b0)))

(assert 

 (= |symex_dynamic::alloca::dynamic_165_array&0#13| 

  (store |symex_dynamic::alloca::dynamic_165_array&0#12| #b0000000000000000000000000000000000000000000000000000000000001100 |nondet$symex::nondet177|)))

(assert 

 (= |goto_symex::guard?0!0&0#17| 

  (ite 

   (bvslt #b00000000000000000000000000001101 $e1) #b1 #b0)))

(assert 

 (= |symex_dynamic::alloca::dynamic_165_array&0#14| 

  (store |symex_dynamic::alloca::dynamic_165_array&0#13| #b0000000000000000000000000000000000000000000000000000000000001101 |nondet$symex::nondet178|)))

(assert 

 (= |goto_symex::guard?0!0&0#18| 

  (ite 

   (bvslt #b00000000000000000000000000001110 $e1) #b1 #b0)))

(assert 

 (= |symex_dynamic::alloca::dynamic_165_array&0#14| |symex_dynamic::alloca::dynamic_165_array&0#16|))

(assert 

 (= |symex_dynamic::alloca::dynamic_165_array&0#17| 

  (ite 

   (= #b1 |goto_symex::guard?0!0&0#17|) |symex_dynamic::alloca::dynamic_165_array&0#16| |symex_dynamic::alloca::dynamic_165_array&0#13|)))

(assert 

 (= |symex_dynamic::alloca::dynamic_165_array&0#18| 

  (ite 

   (= #b1 |goto_symex::guard?0!0&0#16|) |symex_dynamic::alloca::dynamic_165_array&0#17| |symex_dynamic::alloca::dynamic_165_array&0#12|)))

(assert 

 (= |symex_dynamic::alloca::dynamic_165_array&0#19| 

  (ite 

   (= #b1 |goto_symex::guard?0!0&0#15|) |symex_dynamic::alloca::dynamic_165_array&0#18| |symex_dynamic::alloca::dynamic_165_array&0#11|)))

(assert 

 (= |symex_dynamic::alloca::dynamic_165_array&0#20| 

  (ite 

   (= #b1 |goto_symex::guard?0!0&0#14|) |symex_dynamic::alloca::dynamic_165_array&0#19| |symex_dynamic::alloca::dynamic_165_array&0#10|)))

(assert 

 (= |symex_dynamic::alloca::dynamic_165_array&0#21| 

  (ite 

   (= #b1 |goto_symex::guard?0!0&0#13|) |symex_dynamic::alloca::dynamic_165_array&0#20| |symex_dynamic::alloca::dynamic_165_array&0#9|)))

(assert 

 (= |symex_dynamic::alloca::dynamic_165_array&0#22| 

  (ite 

   (= #b1 |goto_symex::guard?0!0&0#12|) |symex_dynamic::alloca::dynamic_165_array&0#21| |symex_dynamic::alloca::dynamic_165_array&0#8|)))

(assert 

 (= |symex_dynamic::alloca::dynamic_165_array&0#23| 

  (ite 

   (= #b1 |goto_symex::guard?0!0&0#11|) |symex_dynamic::alloca::dynamic_165_array&0#22| |symex_dynamic::alloca::dynamic_165_array&0#7|)))

(assert 

 (= |symex_dynamic::alloca::dynamic_165_array&0#24| 

  (ite 

   (= #b1 |goto_symex::guard?0!0&0#10|) |symex_dynamic::alloca::dynamic_165_array&0#23| |symex_dynamic::alloca::dynamic_165_array&0#6|)))

(assert 

 (= |symex_dynamic::alloca::dynamic_165_array&0#25| 

  (ite 

   (= #b1 |goto_symex::guard?0!0&0#9|) |symex_dynamic::alloca::dynamic_165_array&0#24| |symex_dynamic::alloca::dynamic_165_array&0#5|)))

(assert 

 (= |symex_dynamic::alloca::dynamic_165_array&0#26| 

  (ite 

   (= #b1 |goto_symex::guard?0!0&0#8|) |symex_dynamic::alloca::dynamic_165_array&0#25| |symex_dynamic::alloca::dynamic_165_array&0#4|)))

(assert 

 (= |symex_dynamic::alloca::dynamic_165_array&0#27| 

  (ite 

   (= #b1 |goto_symex::guard?0!0&0#7|) |symex_dynamic::alloca::dynamic_165_array&0#26| |symex_dynamic::alloca::dynamic_165_array&0#3|)))

(assert 

 (= |symex_dynamic::alloca::dynamic_165_array&0#28| 

  (ite 

   (= #b1 |goto_symex::guard?0!0&0#6|) |symex_dynamic::alloca::dynamic_165_array&0#27| |symex_dynamic::alloca::dynamic_165_array&0#2|)))

(assert 

 (= |symex_dynamic::alloca::dynamic_165_array&0#29| 

  (ite 

   (= #b1 |goto_symex::guard?0!0&0#5|) |symex_dynamic::alloca::dynamic_165_array&0#28| |symex_dynamic::alloca::dynamic_165_array&0#1|)))

(assert 

 (= |symex_dynamic::alloca::dynamic_165_array&0#30| 

  (ite 

   (= #b0000000000000000000000000000000000000000000000000000000000000000 

    (bvurem $e2 #b0000000000000000000000000000000000000000000000000000000000001000)) 

   (store |symex_dynamic::alloca::dynamic_165_array&0#29| 

    (concat #b000 

     ((_ extract 63 3) $e2)) #b00000000) |symex_dynamic::alloca::dynamic_165_array&0#29|)))

(assert 

 (= |symex_dynamic::alloca::dynamic_164_array&0#1| 

  (store |symex_dynamic::alloca::dynamic_164_array&0#0| #b0000000000000000000000000000000000000000000000000000000000000000 

   (select |symex_dynamic::alloca::dynamic_165_array&0#30| #b0000000000000000000000000000000000000000000000000000000000000000))))

(assert 

 (= |goto_symex::guard?0!0&0#19| 

  (bvnot 

   (bvand 

    (bvnot 

     ((_ extract 7 7) $e3)) 

    (ite 

     (= #b00000000 $e3) #b1 #b0)))))

(assert 

 (= |symex_dynamic::alloca::dynamic_164_array&0#2| 

  (store |symex_dynamic::alloca::dynamic_164_array&0#1| #b0000000000000000000000000000000000000000000000000000000000000001 

   (select |symex_dynamic::alloca::dynamic_165_array&0#30| #b0000000000000000000000000000000000000000000000000000000000000001))))

(assert 

 (= |goto_symex::guard?0!0&0#20| 

  (bvnot 

   (bvand 

    (bvnot 

     ((_ extract 7 7) $e4)) 

    (ite 

     (= #b00000000 $e4) #b1 #b0)))))

(assert 

 (= |symex_dynamic::alloca::dynamic_164_array&0#3| 

  (store |symex_dynamic::alloca::dynamic_164_array&0#2| #b0000000000000000000000000000000000000000000000000000000000000010 

   (select |symex_dynamic::alloca::dynamic_165_array&0#30| #b0000000000000000000000000000000000000000000000000000000000000010))))

(assert 

 (= |goto_symex::guard?0!0&0#21| 

  (bvnot 

   (bvand 

    (bvnot 

     ((_ extract 7 7) $e5)) 

    (ite 

     (= #b00000000 $e5) #b1 #b0)))))

(assert 

 (= |symex_dynamic::alloca::dynamic_164_array&0#4| 

  (store |symex_dynamic::alloca::dynamic_164_array&0#3| #b0000000000000000000000000000000000000000000000000000000000000011 

   (select |symex_dynamic::alloca::dynamic_165_array&0#30| #b0000000000000000000000000000000000000000000000000000000000000011))))

(assert 

 (= |goto_symex::guard?0!0&0#22| 

  (bvnot 

   (bvand 

    (bvnot 

     ((_ extract 7 7) $e6)) 

    (ite 

     (= #b00000000 $e6) #b1 #b0)))))

(assert 

 (= |symex_dynamic::alloca::dynamic_164_array&0#5| 

  (store |symex_dynamic::alloca::dynamic_164_array&0#4| #b0000000000000000000000000000000000000000000000000000000000000100 

   (select |symex_dynamic::alloca::dynamic_165_array&0#30| #b0000000000000000000000000000000000000000000000000000000000000100))))

(assert 

 (= |goto_symex::guard?0!0&0#23| 

  (bvnot 

   (bvand 

    (bvnot 

     ((_ extract 7 7) $e7)) 

    (ite 

     (= #b00000000 $e7) #b1 #b0)))))

(assert 

 (= |symex_dynamic::alloca::dynamic_164_array&0#6| 

  (store |symex_dynamic::alloca::dynamic_164_array&0#5| #b0000000000000000000000000000000000000000000000000000000000000101 

   (select |symex_dynamic::alloca::dynamic_165_array&0#30| #b0000000000000000000000000000000000000000000000000000000000000101))))

(assert 

 (= |goto_symex::guard?0!0&0#24| 

  (bvnot 

   (bvand 

    (bvnot 

     ((_ extract 7 7) $e8)) 

    (ite 

     (= #b00000000 $e8) #b1 #b0)))))

(assert 

 (= |symex_dynamic::alloca::dynamic_164_array&0#7| 

  (store |symex_dynamic::alloca::dynamic_164_array&0#6| #b0000000000000000000000000000000000000000000000000000000000000110 

   (select |symex_dynamic::alloca::dynamic_165_array&0#30| #b0000000000000000000000000000000000000000000000000000000000000110))))

(assert 

 (= |goto_symex::guard?0!0&0#25| 

  (bvnot 

   (bvand 

    (bvnot 

     ((_ extract 7 7) $e9)) 

    (ite 

     (= #b00000000 $e9) #b1 #b0)))))

(assert 

 (= |symex_dynamic::alloca::dynamic_164_array&0#8| 

  (store |symex_dynamic::alloca::dynamic_164_array&0#7| #b0000000000000000000000000000000000000000000000000000000000000111 

   (select |symex_dynamic::alloca::dynamic_165_array&0#30| #b0000000000000000000000000000000000000000000000000000000000000111))))

(assert 

 (= |goto_symex::guard?0!0&0#26| 

  (bvnot 

   (bvand 

    (bvnot 

     ((_ extract 7 7) $e10)) 

    (ite 

     (= #b00000000 $e10) #b1 #b0)))))

(assert 

 (= |symex_dynamic::alloca::dynamic_164_array&0#9| 

  (store |symex_dynamic::alloca::dynamic_164_array&0#8| #b0000000000000000000000000000000000000000000000000000000000001000 

   (select |symex_dynamic::alloca::dynamic_165_array&0#30| #b0000000000000000000000000000000000000000000000000000000000001000))))

(assert 

 (= |goto_symex::guard?0!0&0#27| 

  (bvnot 

   (bvand 

    (bvnot 

     ((_ extract 7 7) $e11)) 

    (ite 

     (= #b00000000 $e11) #b1 #b0)))))

(assert 

 (= |symex_dynamic::alloca::dynamic_164_array&0#10| 

  (store |symex_dynamic::alloca::dynamic_164_array&0#9| #b0000000000000000000000000000000000000000000000000000000000001001 

   (select |symex_dynamic::alloca::dynamic_165_array&0#30| #b0000000000000000000000000000000000000000000000000000000000001001))))

(assert 

 (= |goto_symex::guard?0!0&0#28| 

  (bvnot 

   (bvand 

    (bvnot 

     ((_ extract 7 7) $e12)) 

    (ite 

     (= #b00000000 $e12) #b1 #b0)))))

(assert 

 (= |symex_dynamic::alloca::dynamic_164_array&0#11| 

  (store |symex_dynamic::alloca::dynamic_164_array&0#10| #b0000000000000000000000000000000000000000000000000000000000001010 

   (select |symex_dynamic::alloca::dynamic_165_array&0#30| #b0000000000000000000000000000000000000000000000000000000000001010))))

(assert 

 (= |goto_symex::guard?0!0&0#29| 

  (bvnot 

   (bvand 

    (bvnot 

     ((_ extract 7 7) $e13)) 

    (ite 

     (= #b00000000 $e13) #b1 #b0)))))

(assert 

 (= |symex_dynamic::alloca::dynamic_164_array&0#12| 

  (store |symex_dynamic::alloca::dynamic_164_array&0#11| #b0000000000000000000000000000000000000000000000000000000000001011 

   (select |symex_dynamic::alloca::dynamic_165_array&0#30| #b0000000000000000000000000000000000000000000000000000000000001011))))

(assert 

 (= |goto_symex::guard?0!0&0#30| 

  (bvnot 

   (bvand 

    (bvnot 

     ((_ extract 7 7) $e14)) 

    (ite 

     (= #b00000000 $e14) #b1 #b0)))))

(assert 

 (= |symex_dynamic::alloca::dynamic_164_array&0#13| 

  (store |symex_dynamic::alloca::dynamic_164_array&0#12| #b0000000000000000000000000000000000000000000000000000000000001100 

   (select |symex_dynamic::alloca::dynamic_165_array&0#30| #b0000000000000000000000000000000000000000000000000000000000001100))))

(assert 

 (= |goto_symex::guard?0!0&0#31| 

  (bvnot 

   (bvand 

    (bvnot 

     ((_ extract 7 7) $e15)) 

    (ite 

     (= #b00000000 $e15) #b1 #b0)))))

(assert 

 (= |symex_dynamic::alloca::dynamic_164_array&0#14| 

  (store |symex_dynamic::alloca::dynamic_164_array&0#13| #b0000000000000000000000000000000000000000000000000000000000001101 

   (select |symex_dynamic::alloca::dynamic_165_array&0#30| #b0000000000000000000000000000000000000000000000000000000000001101))))

(assert 

 (= |goto_symex::guard?0!0&0#32| 

  (bvnot 

   (bvand 

    (bvnot 

     ((_ extract 7 7) $e16)) 

    (ite 

     (= #b00000000 $e16) #b1 #b0)))))

(assert 

 (= |symex_dynamic::alloca::dynamic_164_array&0#15| 

  (store |symex_dynamic::alloca::dynamic_164_array&0#14| #b0000000000000000000000000000000000000000000000000000000000001110 

   (select |symex_dynamic::alloca::dynamic_165_array&0#30| #b0000000000000000000000000000000000000000000000000000000000001110))))

(assert 

 (= |goto_symex::guard?0!0&0#33| 

  (bvnot 

   (bvand 

    (bvnot 

     ((_ extract 7 7) $e17)) 

    (ite 

     (= #b00000000 $e17) #b1 #b0)))))

(assert (= 

 (bvnot 

  (bvand 

   (bvnot 

    (bvand 

     (bvand 

      (bvand 

       (bvand 

        (bvand 

         (bvand 

          (bvand 

           (bvand 

            (bvand 

             (bvand 

              (bvand 

               (bvand 

                (bvand 

                 (bvand 

                  (bvand 

                   (bvand 

                    (bvnot |goto_symex::guard?0!0&0#3|) |goto_symex::guard?0!0&0#4|) |goto_symex::guard?0!0&0#5|) |goto_symex::guard?0!0&0#6|) |goto_symex::guard?0!0&0#7|) |goto_symex::guard?0!0&0#8|) |goto_symex::guard?0!0&0#9|) |goto_symex::guard?0!0&0#10|) |goto_symex::guard?0!0&0#11|) |goto_symex::guard?0!0&0#12|) |goto_symex::guard?0!0&0#13|) |goto_symex::guard?0!0&0#14|) |goto_symex::guard?0!0&0#15|) |goto_symex::guard?0!0&0#16|) |goto_symex::guard?0!0&0#17|) |goto_symex::guard?0!0&0#18|) |execution_statet::guard_exec?0!0|)) 

   (bvnot 

    (bvand |execution_statet::guard_exec?0!0| 

     (bvand 

      (bvand 

       (bvand 

        (bvand 

         (bvand 

          (bvand 

           (bvand 

            (bvand 

             (bvand 

              (bvand 

               (bvand 

                (bvand 

                 (bvand 

                  (bvand 

                   (bvand 

                    (bvand 

                     (bvnot |goto_symex::guard?0!0&0#3|) 

                     (bvnot 

                      (bvand |goto_symex::guard?0!0&0#4| 

                       (bvand |goto_symex::guard?0!0&0#5| 

                        (bvand |goto_symex::guard?0!0&0#6| 

                         (bvand |goto_symex::guard?0!0&0#7| 

                          (bvand |goto_symex::guard?0!0&0#8| 

                           (bvand |goto_symex::guard?0!0&0#9| 

                            (bvand |goto_symex::guard?0!0&0#10| 

                             (bvand |goto_symex::guard?0!0&0#11| 

                              (bvand |goto_symex::guard?0!0&0#12| 

                               (bvand |goto_symex::guard?0!0&0#13| 

                                (bvand |goto_symex::guard?0!0&0#14| 

                                 (bvand |goto_symex::guard?0!0&0#15| 

                                  (bvand |goto_symex::guard?0!0&0#16| 

                                   (bvand |goto_symex::guard?0!0&0#17| |goto_symex::guard?0!0&0#18|)))))))))))))))) |goto_symex::guard?0!0&0#19|) |goto_symex::guard?0!0&0#20|) |goto_symex::guard?0!0&0#21|) |goto_symex::guard?0!0&0#22|) |goto_symex::guard?0!0&0#23|) |goto_symex::guard?0!0&0#24|) |goto_symex::guard?0!0&0#25|) |goto_symex::guard?0!0&0#26|) |goto_symex::guard?0!0&0#27|) |goto_symex::guard?0!0&0#28|) |goto_symex::guard?0!0&0#29|) |goto_symex::guard?0!0&0#30|) |goto_symex::guard?0!0&0#31|) |goto_symex::guard?0!0&0#32|) |goto_symex::guard?0!0&0#33|))))) #b1))

(check-sat)

(exit)
